NAME : rnd73_20.tsp
TYPE : TSP
DIMENSION : 20
EDGE_WEIGHT_TYPE : EUC_2D
NODE_COORD_SECTION
0 976 893
1 473 350
2 435 947
3 998 618
4 89 460
5 559 521
6 174 651
7 412 171
8 864 540
9 804 815
10 874 722
11 285 150
12 701 258
13 838 743
14 456 760
15 376 664
16 294 672
17 241 754
18 523 693
19 38 664
